Sarsa 50 DD 0.01
35 18 35 26 31 18 8 35 17 35 8 31 26 36 26 12 22 33 8 30 32 30 25 37 29 8 21 24 37 20 36 12 37 13 8 8 35 8 32 24 37 33 35 8 18 21 19 36 35 32

Sarsa 50 DD 0.1
35 38 36 36 31 8 8 25 8 35 8 31 26 8 8 12 15 38 37 30 32 30 25 37 29 8 21 24 37 31 36 36 37 13 31 8 35 8 22 24 37 33 36 8 8 27 19 36 35 32

Q 50 DD 0.01
35 18 35 26 31 18 8 35 8 35 8 31 26 22 26 12 15 33 8 30 32 30 25 37 29 8 21 24 37 20 36 16 37 13 8 8 35 8 32 24 37 33 33 8 8 27 19 36 35 32

Q 50 DD 0.1
35 38 36 39 39 18 21 35 21 35 8 31 26 18 34 11 22 38 37 30 32 30 25 37 29 8 21 24 37 31 36 36 37 13 31 8 32 8 22 24 37 33 36 8 8 27 19 36 35 32

